 &INPUT
  fildyn  = 'results/phonon/Nb.dyn'
  zasr    = 'crystal'
  flfrc   = 'results/phonon/Nb.fc'
 /
